
Gurobi 11.0.0 (linux64) logging started Wed Nov 29 17:13:31 2023

Set parameter LogFile to value "wlp03-m-Location-Of-Facilities-GUROBI.txt"
Gurobi Optimizer version 11.0.0 build v11.0.0rc2 (linux64 - "Ubuntu 22.04.2 LTS")

CPU model: 11th Gen Intel(R) Core(TM) i5-1135G7 @ 2.40GHz, instruction set [SSE2|AVX|AVX2|AVX512]
Thread count: 4 physical cores, 8 logical processors, using up to 8 threads

Academic license 2443615 - for non-commercial use only - registered to th___@gmail.com
Optimize a model with 406212 rows, 405200 columns and 1619200 nonzeros
Model fingerprint: 0xb7382ab3
Coefficient statistics:
  Matrix range     [1e+00, 2e+01]
  Objective range  [1e+00, 1e+03]
  Bounds range     [1e+00, 1e+00]
  RHS range        [1e+00, 1e+02]
Presolve time: 0.83s
Presolved: 406212 rows, 405200 columns, 1619200 nonzeros

Concurrent LP optimizer: dual simplex and barrier
Showing barrier log only...

Ordering time: 0.42s

Barrier statistics:
 Dense cols : 400
 AA' NZ     : 1.619e+06
 Factor NZ  : 3.072e+06 (roughly 360 MB of memory)
 Factor Ops : 1.513e+09 (less than 1 second per iteration)
 Threads    : 3

                  Objective                Residual
Iter       Primal          Dual         Primal    Dual     Compl     Time
   0   3.29843091e+06 -1.99733831e+05  1.06e+02 6.96e+01  3.27e+01     3s
   1   4.27374874e+05 -2.98771321e+05  1.21e+01 1.12e+01  5.56e+00     3s
   2   1.11378843e+05 -2.38446572e+05  1.87e-14 2.37e+00  1.00e+00     3s
   3   9.30223121e+04 -1.62530098e+04  7.77e-15 1.89e+00  1.83e-01     4s
   4   7.87509569e+04 -3.41122725e+03  5.33e-15 1.12e+00  1.20e-01     4s
   5   7.10777438e+04 -2.62243712e+02  5.33e-15 9.30e-01  9.78e-02     4s
   6   5.65349780e+04  2.85298611e+03  7.99e-15 6.56e-01  6.71e-02     5s
   7   5.12379440e+04  4.53825751e+03  7.77e-15 5.01e-01  5.48e-02     5s
   8   4.12582957e+04  6.60700917e+03  4.88e-15 3.46e-01  3.78e-02     5s
   9   3.67205904e+04  8.93216743e+03  3.33e-15 2.56e-01  2.82e-02     6s
  10   3.13997198e+04  9.94818061e+03  5.66e-15 2.00e-01  2.13e-02     6s
  11   2.88369356e+04  1.11337236e+04  6.99e-15 1.67e-01  1.72e-02     7s
  12   2.64526995e+04  1.22636457e+04  8.22e-15 1.32e-01  1.35e-02     7s
  13   2.48822281e+04  1.32671841e+04  4.00e-14 1.00e-01  1.09e-02     8s
  14   2.32985228e+04  1.39348022e+04  2.95e-14 8.51e-02  8.71e-03     8s
  15   2.21768465e+04  1.46702111e+04  2.52e-14 6.94e-02  6.96e-03     9s
  16   2.12289285e+04  1.53151462e+04  3.54e-14 5.58e-02  5.46e-03     9s
  17   2.05671263e+04  1.56927776e+04  2.86e-14 4.82e-02  4.51e-03    10s
  18   2.02621534e+04  1.60696142e+04  2.15e-14 4.07e-02  3.86e-03    10s
  19   1.99365784e+04  1.64507856e+04  1.80e-14 3.28e-02  3.20e-03    11s
  20   1.96546751e+04  1.67590614e+04  1.35e-14 2.65e-02  2.65e-03    11s
  21   1.94140829e+04  1.70983391e+04  1.44e-14 1.95e-02  2.10e-03    12s
  22   1.92176855e+04  1.72969244e+04  2.38e-14 1.54e-02  1.74e-03    12s
  23   1.91674282e+04  1.73717978e+04  2.31e-14 1.42e-02  1.62e-03    12s
  24   1.90046529e+04  1.74879796e+04  3.35e-14 1.20e-02  1.37e-03    13s
  25   1.88753452e+04  1.76141216e+04  2.71e-14 9.43e-03  1.13e-03    13s
  26   1.87798260e+04  1.77059121e+04  2.38e-14 7.67e-03  9.62e-04    14s
  27   1.86790977e+04  1.77591763e+04  3.38e-14 6.62e-03  8.25e-04    14s
  28   1.86034175e+04  1.78093938e+04  3.06e-14 5.80e-03  7.13e-04    15s
  29   1.85313480e+04  1.78579923e+04  4.01e-14 5.06e-03  6.05e-04    15s
  30   1.84648153e+04  1.79049469e+04  4.16e-14 4.34e-03  5.03e-04    16s
  31   1.84461908e+04  1.79383480e+04  4.26e-14 3.82e-03  4.54e-04    16s
  32   1.83960661e+04  1.79716911e+04  4.17e-14 2.93e-03  3.79e-04    17s
  33   1.83532416e+04  1.80058482e+04  1.40e-13 2.27e-03  3.09e-04    17s
  34   1.83100558e+04  1.80265963e+04  1.39e-13 1.86e-03  2.52e-04    17s
  35   1.83054112e+04  1.80346128e+04  1.38e-13 1.71e-03  2.41e-04    18s
  36   1.82713988e+04  1.80499374e+04  1.37e-13 1.40e-03  1.97e-04    18s
  37   1.82517983e+04  1.80588855e+04  3.36e-13 1.28e-03  1.71e-04    19s
  38   1.82381573e+04  1.80654902e+04  2.99e-13 1.09e-03  1.53e-04    19s
  39   1.82145693e+04  1.80745627e+04  2.69e-13 9.07e-04  1.25e-04    20s
  40   1.82053586e+04  1.80862376e+04  2.45e-13 6.98e-04  1.05e-04    20s
  41   1.81914529e+04  1.80898353e+04  2.42e-13 6.23e-04  9.01e-05    21s
  42   1.81804289e+04  1.80942036e+04  3.05e-13 5.34e-04  7.66e-05    21s
  43   1.81738508e+04  1.80978038e+04  3.42e-13 4.61e-04  6.75e-05    22s
  44   1.81691586e+04  1.81021985e+04  4.33e-13 3.80e-04  5.91e-05    22s
  45   1.81606742e+04  1.81033620e+04  6.10e-13 3.58e-04  5.10e-05    22s
  46   1.81548941e+04  1.81078769e+04  5.39e-13 2.73e-04  4.16e-05    23s
  47   1.81523662e+04  1.81102992e+04  4.41e-13 2.56e-04  3.70e-05    23s
  48   1.81500905e+04  1.81131737e+04  4.29e-13 1.87e-04  3.22e-05    24s
  49   1.81469991e+04  1.81139462e+04  3.59e-13 1.67e-04  2.88e-05    24s
  50   1.81437739e+04  1.81156167e+04  5.01e-13 1.31e-04  2.44e-05    25s
  51   1.81414740e+04  1.81166772e+04  5.75e-13 1.03e-04  2.14e-05    25s
  52   1.81376368e+04  1.81172406e+04  7.78e-13 9.32e-05  1.77e-05    26s
  53   1.81366961e+04  1.81175752e+04  7.43e-13 8.69e-05  1.66e-05    26s
  54   1.81337783e+04  1.81181009e+04  1.46e-12 7.58e-05  1.36e-05    27s
  55   1.81313977e+04  1.81185193e+04  1.70e-12 5.97e-05  1.12e-05    27s
  56   1.81305908e+04  1.81189315e+04  1.94e-12 5.05e-05  1.01e-05    28s
  57   1.81294437e+04  1.81195053e+04  2.04e-12 3.90e-05  8.60e-06    28s
  58   1.81286738e+04  1.81197643e+04  1.87e-12 3.40e-05  7.70e-06    28s
  59   1.81282108e+04  1.81200065e+04  1.78e-12 3.00e-05  7.07e-06    29s
  60   1.81269080e+04  1.81201766e+04  1.93e-12 2.64e-05  5.82e-06    29s
  61   1.81256537e+04  1.81203219e+04  1.41e-11 2.32e-05  4.64e-06    30s
  62   1.81250610e+04  1.81204727e+04  1.78e-11 1.98e-05  4.00e-06    30s
  63   1.81245682e+04  1.81207458e+04  1.52e-11 1.42e-05  3.31e-06    31s
  64   1.81243130e+04  1.81209881e+04  1.42e-11 9.56e-06  2.85e-06    31s
  65   1.81240422e+04  1.81210522e+04  1.28e-11 8.65e-06  2.56e-06    32s
  66   1.81235856e+04  1.81211594e+04  1.14e-11 6.94e-06  2.07e-06    32s
  67   1.81231612e+04  1.81212143e+04  9.73e-12 5.42e-06  1.67e-06    33s
  68   1.81228989e+04  1.81213070e+04  8.34e-12 3.70e-06  1.36e-06    33s
  69   1.81225918e+04  1.81213386e+04  1.74e-11 3.14e-06  1.07e-06    34s
  70   1.81223939e+04  1.81213728e+04  1.54e-11 2.54e-06  8.72e-07    34s
  71   1.81222831e+04  1.81213915e+04  1.63e-11 2.22e-06  7.62e-07    35s
  72   1.81221312e+04  1.81214324e+04  1.73e-11 1.60e-06  5.95e-07    35s
  73   1.81220082e+04  1.81214519e+04  1.17e-11 1.27e-06  4.74e-07    35s
  74   1.81218964e+04  1.81214761e+04  9.08e-12 8.74e-07  3.58e-07    36s
  75   1.81218002e+04  1.81214931e+04  2.42e-11 6.05e-07  2.61e-07    36s
  76   1.81217752e+04  1.81215008e+04  1.64e-11 5.00e-07  2.33e-07    37s
  77   1.81216923e+04  1.81215063e+04  3.71e-11 4.14e-07  1.59e-07    37s
  78   1.81216448e+04  1.81215143e+04  2.89e-11 3.10e-07  1.12e-07    38s
  79   1.81216173e+04  1.81215165e+04  3.37e-11 2.82e-07  8.69e-08    38s
  80   1.81215771e+04  1.81215232e+04  4.26e-11 1.80e-07  4.70e-08    39s
  81   1.81215702e+04  1.81215322e+04  9.04e-10 5.25e-08  3.22e-08    39s
  82   1.81215580e+04  1.81215349e+04  9.31e-09 1.71e-08  1.95e-08    39s
  83   1.81215566e+04  1.81215364e+04  6.57e-09 8.17e-09  1.68e-08    40s
  84   1.81215494e+04  1.81215369e+04  1.41e-08 3.47e-09  1.04e-08    40s
  85   1.81215410e+04  1.81215375e+04  1.24e-08 6.86e-10  2.90e-09    40s
  86   1.81215406e+04  1.81215378e+04  1.14e-08 2.44e-12  2.31e-09    41s
  87   1.81215390e+04  1.81215379e+04  4.89e-09 2.22e-12  9.39e-10    41s
  88   1.81215385e+04  1.81215379e+04  2.99e-09 3.07e-12  4.97e-10    41s
  89   1.81215379e+04  1.81215379e+04  5.32e-09 3.92e-12  1.71e-11    42s

Barrier solved model in 89 iterations and 41.73 seconds (18.90 work units)
Optimal objective 1.81215379e+04

Crossover log...

  251177 variables added to crossover basis                       45s
  253965 variables added to crossover basis                       50s

  150826 DPushes remaining with DInf 0.0000000e+00                55s
      38 DPushes remaining with DInf 0.0000000e+00                83s
       0 DPushes remaining with DInf 0.0000000e+00                83s

       7 PPushes remaining with PInf 0.0000000e+00                84s
       0 PPushes remaining with PInf 0.0000000e+00                84s

  Push phase complete: Pinf 0.0000000e+00, Dinf 6.4746443e-11     84s


Solved with barrier
Iteration    Objective       Primal Inf.    Dual Inf.      Time
   14442    1.8121538e+04   0.000000e+00   0.000000e+00     84s

Solved in 14442 iterations and 83.83 seconds (65.49 work units)
Optimal objective  1.812153787e+04
